n = 10;
personas = [
  "jose",     % 1
  "julian",   % 2
  "diana",    % 3
  "juan",     % 4
  "david",    % 5
  "claudia",  % 6
  "edgar",    % 7
  "mario",    % 8
  "lina",     % 9
  "andres"    % 10
];

% deben estar juntos
next = array2d(1..3, 1..2, [
  5, 8,   % david y mario
  1, 4,   % jose y juan
  9, 10   % lina y andres
]);

% deben estar separados
separate = array2d(1..2, 1..2, [
  6, 7,   % claudia y edgar
  3, 10   % diana y andres
]);

% distancia m치xima entre personas (personas entre ellos <= M)
distance = array2d(1..3, 1..3, [
  6, 5, 2,  % claudia y david, m치x 2 personas entre ellos
  2, 3, 3,  % julian y diana, m치x 3 personas entre ellos
  7, 8, 1   % edgar y mario, m치x 1 persona entre ellos
]);
